param M1 := 1000000;
param M2 := 1000000;
param C := 2520;
#param cpd := 31500;
param cpd := 12600;
param STE_init := 15750;
param allow_vl := 12600;
param allow_vu := 18900;
param allow_vl_Tnum := 12600;
param allow_vu_Tnum := 18900;
